18 6
40 101 67 50 87 87
2 4 5 2 1 2 4 5 2 3 4 3 1 4 4 2 5 5
10 22 14 14 26 18
10 11 13 18 13 9
17 18 15 17 7 15
16 16 17 21 13 14
14 15 8 9 6 11
18 18 9 1 12 15
21 21 16 15 2 18
11 11 9 14 9 8
13 13 4 5 10 10
18 19 13 12 1 15
8 8 4 11 12 4
1 1 8 16 19 3
14 14 5 3 13 11
9 8 2 9 16 6
3 2 7 15 19 3
21 22 17 17 4 18
14 15 15 20 12 12
15 16 16 20 11 13
6 7 6 13 13 4
